10J3M/DAT/10J3MNLA-19.dat
10 3
42.2626 1786.1274
26.9706 727.4133
25.0646 628.2342
18.247 332.953
22.0019 484.0836
24.0053 576.2544
28.6542 821.0632
25.8304 667.2096
32.5665 1060.5769
19.0522 362.9863
2482.3006