10J3M/SOL/10J3MNLA-19.sol
solution status: optimal solution found
objective value:                              79.4295
x#1#1                                               1 	(obj:0)
x#2#1                                               1 	(obj:0)
x#3#2                                               1 	(obj:0)
x#4#1                               0.584845284235699 	(obj:0)
x#4#3                               0.415154715764301 	(obj:0)
x#5#3                                               1 	(obj:0)
x#6#2                               0.828501656945805 	(obj:0)
x#6#3                               0.171498343054195 	(obj:0)
x#7#1                               0.452695565913437 	(obj:0)
x#7#2                               0.547304434086563 	(obj:0)
x#8#1                               0.214366356388586 	(obj:0)
x#8#3                               0.785633643611414 	(obj:0)
x#9#2                                               1 	(obj:0)
x#10#3                                              1 	(obj:0)
z                                             79.4295 	(obj:1)
